NAME : random_13
COMMENT : 39 random nodes
TYPE : TSP
DIMENSION : 39
EDGE_WEIGHT_TYPE : EUC_2D
NODE_COORD_SECTION
1 2877 695
2 -1467 4375
3 -2571 701
4 -1437 -47
5 512 710
6 -778 -52
7 -2314 1637
8 4545 2622
9 1637 1572
10 974 4586
11 3511 1404
12 -2449 2590
13 3164 -2740
14 1644 -919
15 -2471 549
16 -2322 4622
17 -2286 2073
18 -2461 -1285
19 2440 437
20 4109 3524
21 3982 3414
22 -392 2619
23 3069 3056
24 -2492 -2274
25 2153 3977
26 1619 4135
27 -2372 -1869
28 471 -2541
29 3770 -993
30 1432 4122
31 881 867
32 -307 -567
33 4343 2032
34 663 -855
35 -1273 1366
36 6 -990
37 -457 609
38 -2560 3474
39 3343 4209
EOF